; benchmark generated from python API
(set-info :status unknown)
(declare-datatypes ((RealState 0)) (((RMk1 (rval1 Real)) (RMk2 (rval2 Real)))))
 (assert
 (forall ((|v17:0| Real) )(forall ((|v16:1| Real) )(forall ((|v15:2| Real) )(forall ((|v14:3| Real) )(forall ((|v13:4| Real) )(forall ((|v12:5| Real) )(exists ((|v11:6_st| RealState) (val!8340 Real) )(exists ((|v10:7_st| RealState) (val!8341 Real) )(exists ((|v9:8_st| RealState) (val!8342 Real) )(exists ((|v8:9_st| RealState) (val!8343 Real) )(exists ((|v7:10_st| RealState) (val!8344 Real) )(exists ((|v6:11_st| RealState) (val!8345 Real) )(forall ((|v5:12| Real) )(forall ((|v4:13| Real) )(forall ((|v3:14| Real) )(forall ((|v2:15| Real) )(forall ((|v1:16| Real) )(forall ((|v0:17| Real) )(let ((?x1391 (- 9.0)))
 (let ((?x3499 (* ?x1391 |v0:17|)))
 (let ((?x3459 (+ (+ (+ (* 10.0 |v13:4|) (* (- 15.0) (rval2 |v7:10_st|))) ?x3499) (* 14.0 |v15:2|))))
 (let ((?x1431 (- 2.0)))
 (let ((?x2329 (rval2 |v11:6_st|)))
 (let ((?x3202 (* 7.0 ?x2329)))
 (let ((?x2904 (+ (+ (+ (* 17.0 (rval2 |v10:7_st|)) (* (- 4.0) |v5:12|)) ?x3202) (* (- 4.0) |v13:4|))))
 (let ((?x869 (- 1.0)))
 (let ((?x2811 (- 14.0)))
 (let ((?x1157 (* ?x2811 |v2:15|)))
 (let ((?x464 (+ (+ (* (- 19.0) ?x2329) (* (- 8.0) |v13:4|)) (* (- 11.0) ?x2329))))
 (let ((?x1069 (+ (+ (* (- 4.0) (rval2 |v6:11_st|)) (* (- 12.0) |v5:12|)) (* (- 11.0) |v16:1|))))
 (let (($x1974 (or (and (<= (+ ?x1069 (* 2.0 |v15:2|)) 17.0) (<= (+ ?x464 ?x1157) ?x869)) (and (<= ?x2904 ?x1431) (<= ?x3459 6.0)))))
 (let ((?x1817 (* 14.0 |v17:0|)))
 (let ((?x3381 (+ (+ (* 13.0 (rval2 |v10:7_st|)) (* 5.0 |v3:14|)) (* (- 12.0) (rval2 |v9:8_st|)))))
 (let ((?x3020 (- 18.0)))
 (let (($x212 (<= (+ (+ (+ |v13:4| (* (- 4.0) |v15:2|)) (* ?x2811 |v0:17|)) (* 4.0 |v13:4|)) ?x3020)))
 (let ((?x2999 (* ?x3020 |v2:15|)))
 (let (($x2346 (<= (+ (+ (+ (* 7.0 |v5:12|) (* ?x2811 ?x2329)) (* 13.0 |v17:0|)) ?x2999) 13.0)))
 (let ((?x2553 (+ (+ (+ (* ?x869 |v12:5|) (* 6.0 |v14:3|)) |v12:5|) (* (- 17.0) (rval2 |v10:7_st|)))))
 (let (($x3399 (and (or (and (<= ?x2553 5.0) $x2346) (or $x212 (<= (+ ?x3381 ?x1817) ?x869))) $x1974)))
 (let ((?x3066 (- 10.0)))
 (let ((?x1887 (* ?x3066 |v5:12|)))
 (let (($x1556 (<= (+ (+ (+ (* 7.0 (rval2 |v6:11_st|)) |v14:3|) (* 13.0 |v13:4|)) ?x1887) ?x3066)))
 (let ((?x2804 (- 15.0)))
 (let ((?x1286 (+ (+ (+ (* 11.0 |v13:4|) (* 15.0 |v17:0|)) (* 12.0 |v4:13|)) (* (- 16.0) (rval2 |v7:10_st|)))))
 (let ((?x3091 (- 11.0)))
 (let ((?x2848 (* ?x3091 |v1:16|)))
 (let (($x1859 (<= (+ (+ (+ (* 17.0 |v17:0|) (* 9.0 |v15:2|)) (* 4.0 |v2:15|)) ?x2848) ?x1431)))
 (let ((?x2558 (* 10.0 |v16:1|)))
 (let (($x759 (<= (+ (+ (+ (* 5.0 |v13:4|) (* 18.0 |v12:5|)) (* 16.0 |v12:5|)) ?x2558) ?x2811)))
 (let ((?x1179 (+ (+ (+ (* (- 3.0) (rval2 |v8:9_st|)) (* 7.0 |v0:17|)) (* ?x2811 |v17:0|)) (* 18.0 (rval2 |v8:9_st|)))))
 (let (($x1168 (and (and (or (<= ?x1179 11.0) $x759) (or $x1859 (<= ?x1286 ?x2804))) $x1556)))
 (let (($x3127 (<= (+ (+ (+ (* 0.0 |v2:15|) ?x2558) (* 20.0 |v1:16|)) (* 16.0 |v14:3|)) 3.0)))
 (let ((?x2808 (* ?x2804 |v5:12|)))
 (let ((?x2381 (+ (+ (+ (* (- 20.0) (rval2 |v9:8_st|)) (* ?x1431 |v17:0|)) (* 12.0 |v14:3|)) ?x2808)))
 (let ((?x963 (rval2 |v7:10_st|)))
 (let (($x929 (<= (+ (+ (+ (* 18.0 |v17:0|) (* 7.0 ?x963)) (* 8.0 ?x963)) ?x963) 1.0)))
 (let ((?x2899 (+ (+ (+ (* 16.0 |v14:3|) (* (- 16.0) (rval2 |v8:9_st|))) (* 4.0 |v5:12|)) (* ?x3066 |v15:2|))))
 (let (($x1227 (<= (+ (+ (+ ?x1817 (* 12.0 |v1:16|)) (* 12.0 |v15:2|)) (* ?x3020 |v4:13|)) ?x3091)))
 (let ((?x1667 (- 7.0)))
 (let ((?x2910 (- 8.0)))
 (let ((?x868 (* ?x2910 |v13:4|)))
 (let ((?x2097 (+ (+ (+ (* ?x2910 (rval2 |v6:11_st|)) (* (- 3.0) |v5:12|)) (* ?x1431 |v2:15|)) ?x868)))
 (let ((?x1685 (rval2 |v10:7_st|)))
 (let ((?x2311 (* 9.0 ?x1685)))
 (let ((?x2671 (* 8.0 |v3:14|)))
 (let ((?x3033 (+ (+ (+ (* (- 17.0) (rval2 |v6:11_st|)) (* (- 13.0) |v13:4|)) ?x2671) ?x2311)))
 (let ((?x2141 (+ (+ (+ (* 13.0 ?x2329) (* ?x2811 |v17:0|)) (* (- 13.0) (rval2 |v9:8_st|))) (* (- 3.0) ?x963))))
 (let ((?x243 (+ (+ (+ (* 18.0 ?x963) (* 11.0 |v12:5|)) (* (- 6.0) |v0:17|)) (* ?x1667 (rval2 |v9:8_st|)))))
 (let ((?x2922 (+ (+ (+ (* ?x1431 |v13:4|) (* 20.0 |v15:2|)) (* ?x1667 ?x1685)) (* 19.0 ?x1685))))
 (let ((?x1054 (* 8.0 |v5:12|)))
 (let ((?x2299 (+ (+ (+ (* 5.0 |v2:15|) (* 3.0 (rval2 |v8:9_st|))) (* (- 19.0) |v5:12|)) ?x1054)))
 (let (($x2679 (and (or (<= ?x2299 0.0) (<= ?x2922 ?x1431)) (or (<= ?x243 ?x3020) (<= ?x2141 7.0)))))
 (let (($x2210 (and (or $x2679 (or (<= ?x3033 12.0) (and (<= ?x2097 ?x1667) $x1227))) (and (and (or (<= ?x2899 ?x1431) $x929) (<= ?x2381 ?x1391)) $x3127))))
 (let ((?x1578 (* 11.0 |v0:17|)))
 (let ((?x2150 (+ (+ (+ (* ?x2910 |v1:16|) (* 15.0 (rval2 |v8:9_st|))) (* 6.0 |v2:15|)) ?x1578)))
 (let (($x785 (not (= |v6:11_st| (RMk1 val!8345)))))
 (let (($x1017 (not (= |v7:10_st| (RMk1 val!8344)))))
 (let (($x2912 (not (= |v8:9_st| (RMk1 val!8343)))))
 (let (($x2702 (not (= |v9:8_st| (RMk1 val!8342)))))
 (let (($x1978 (not (= |v10:7_st| (RMk1 val!8341)))))
 (let (($x891 (not (= |v11:6_st| (RMk1 val!8340)))))
 (and $x891 $x1978 $x2702 $x2912 $x1017 $x785 (or (<= ?x2150 14.0) (and $x2210 (or $x1168 $x3399))))))))))))))))))))))))))))))))))))))))))))))))))))))))))))))))))))
 )
 )
 )
 )
 )
 )
 )
 )
 )
 )
 )
 )
 )
 )
 )
 )
 )
 )
(check-sat)
